10
20
536216
0
0
83 10 198 59 8 42 26 26 14 44 4 55 7 30 9 83 75 36 29 65
1
0
71 13 157 82 16 79 35 48 13 48 7 49 5 41 7 81 59 42 26 76
2
0
77 17 198 101 26 37 40 32 9 43 5 39 5 37 8 68 58 28 41 95
3
0
80 11 178 97 18 49 18 37 16 39 7 45 6 43 19 115 61 57 32 81
4
0
61 18 138 65 11 46 25 46 18 38 3 53 3 34 13 101 72 38 35 68
5
0
79 21 190 87 19 42 40 39 17 39 5 58 3 66 5 81 68 47 29 90
6
0
72 13 145 83 14 54 32 42 27 31 5 44 6 60 13 57 72 35 27 113
7
0
64 12 189 85 12 42 32 53 13 33 5 34 5 57 7 92 68 60 37 85
8
0
96 11 183 75 17 49 20 69 19 43 6 46 3 38 16 111 45 40 40 86
9
0
54 13 160 56 15 63 25 44 9 55 3 51 4 51 12 96 59 38 29 56
